Q:[														
30000 30000 30000	30000	30000	50000	50000	50000 100000 100000									
]														
														
q:[														
0														
5000														
5000														
5000														
5000														
5000														
5000														
5000														
5000														
5000														
5000														
5000														
10000														
10000														
10000														
10000														
10000														
10000														
10000														
10000														
10000														
10000														
20000														
20000														
20000														
30000														
500														
500														
500														
500														
500														
500														
500														
500														
500														
500														
500														
1000														
1000														
1000														
1000														
1000														
1000														
1000														
1000														
1000														
1000														
2000														
2000														
2000														
3000]														
														
L:[30000	30000	30000	30000	30000	25000	25000	25000	25000	25000	20000	20000	20000	20000	20000
30000	30000	30000	30000	30000	25000	25000	25000	25000	25000	20000	20000	20000	20000	20000
30000	30000	30000	30000	30000	25000	25000	25000	25000	25000	20000	20000	20000	20000	20000
30000	30000	30000	30000	30000	25000	25000	25000	25000	25000	20000	20000	20000	20000	20000
30000	30000	30000	30000	30000	50000	50000	50000	50000	50000	60000	60000	60000	60000	60000
30000	30000	30000	30000	30000	50000	50000	50000	50000	50000	60000	60000	60000	60000	60000
30000	30000	30000	30000	30000	50000	50000	50000	50000	50000	60000	60000	60000	60000	60000
30000	30000	30000	30000	30000	50000	50000	50000	50000	50000	60000	60000	60000	60000	60000
30000	30000	30000	30000	30000	50000	50000	50000	50000	50000	60000	60000	60000	60000	60000
30000	30000	30000	30000	30000	50000	50000	50000	50000	50000	60000	60000	60000	60000	60000
30000	30000	30000	30000	30000	50000	50000	50000	50000	50000	60000	60000	60000	60000	60000
30000	30000	30000	30000	30000	50000	50000	50000	50000	50000	60000	60000	60000	60000	60000
30000	30000	30000	30000	30000	50000	50000	50000	50000	50000	80000	80000	80000	80000	80000
30000	30000	30000	30000	30000	50000	50000	50000	50000	50000	80000	80000	80000	80000	80000
30000	30000	30000	30000	30000	50000	50000	50000	50000	50000	80000	80000	80000	80000	80000
30000	30000	30000	30000	30000	50000	50000	50000	50000	50000	80000	80000	80000	80000	80000
30000	30000	30000	30000	30000	50000	50000	50000	50000	50000	80000	80000	80000	80000	80000
30000	30000	30000	30000	30000	50000	50000	50000	50000	50000	100000	100000	100000	100000	100000
30000	30000	30000	30000	30000	50000	50000	50000	50000	50000	100000	100000	100000	100000	100000
30000	30000	30000	30000	30000	50000	50000	50000	50000	50000	100000	100000	100000	100000	100000
30000	30000	30000	30000	30000	50000	50000	50000	50000	50000	100000	100000	100000	100000	100000
30000	30000	30000	30000	30000	50000	50000	50000	50000	50000	100000	100000	100000	100000	100000
30000	30000	30000	30000	30000	50000	50000	50000	50000	50000	100000	100000	100000	100000	100000
30000	30000	30000	30000	30000	50000	50000	50000	50000	50000	100000	100000	100000	100000	100000
30000	30000	30000	30000	30000	50000	50000	50000	50000	50000	100000	100000	100000	100000	100000
30000	30000	30000	30000	30000	25000	25000	25000	25000	25000	20000	20000	20000	20000	20000
30000	30000	30000	30000	30000	25000	25000	25000	25000	25000	20000	20000	20000	20000	20000
30000	30000	30000	30000	30000	25000	25000	25000	25000	25000	20000	20000	20000	20000	20000
30000	30000	30000	30000	30000	25000	25000	25000	25000	25000	20000	20000	20000	20000	20000
30000	30000	30000	30000	30000	50000	50000	50000	50000	50000	60000	60000	60000	60000	60000
30000	30000	30000	30000	30000	50000	50000	50000	50000	50000	60000	60000	60000	60000	60000
30000	30000	30000	30000	30000	50000	50000	50000	50000	50000	60000	60000	60000	60000	60000
30000	30000	30000	30000	30000	50000	50000	50000	50000	50000	60000	60000	60000	60000	60000
30000	30000	30000	30000	30000	50000	50000	50000	50000	50000	60000	60000	60000	60000	60000
30000	30000	30000	30000	30000	50000	50000	50000	50000	50000	60000	60000	60000	60000	60000
30000	30000	30000	30000	30000	50000	50000	50000	50000	50000	60000	60000	60000	60000	60000
30000	30000	30000	30000	30000	50000	50000	50000	50000	50000	60000	60000	60000	60000	60000
30000	30000	30000	30000	30000	50000	50000	50000	50000	50000	80000	80000	80000	80000	80000
30000	30000	30000	30000	30000	50000	50000	50000	50000	50000	80000	80000	80000	80000	80000
30000	30000	30000	30000	30000	50000	50000	50000	50000	50000	80000	80000	80000	80000	80000
30000	30000	30000	30000	30000	50000	50000	50000	50000	50000	80000	80000	80000	80000	80000
30000	30000	30000	30000	30000	50000	50000	50000	50000	50000	80000	80000	80000	80000	80000
30000	30000	30000	30000	30000	50000	50000	50000	50000	50000	100000	100000	100000	100000	100000
30000	30000	30000	30000	30000	50000	50000	50000	50000	50000	100000	100000	100000	100000	100000
30000	30000	30000	30000	30000	50000	50000	50000	50000	50000	100000	100000	100000	100000	100000
30000	30000	30000	30000	30000	50000	50000	50000	50000	50000	100000	100000	100000	100000	100000
30000	30000	30000	30000	30000	50000	50000	50000	50000	50000	100000	100000	100000	100000	100000
30000	30000	30000	30000	30000	50000	50000	50000	50000	50000	100000	100000	100000	100000	100000
30000	30000	30000	30000	30000	50000	50000	50000	50000	50000	100000	100000	100000	100000	100000
30000	30000	30000	30000	30000	50000	50000	50000	50000	50000	100000	100000	100000	100000	100000
]														
														
coord:[														
0	0													
44	17
8	51
34	21
52	57
8	57
79	19
81	83
81	70
11	28
41	5
61	74
89	96
57	60
16	52
17	17
76	18
98	5
1	76
10	50
97	71
87	59
87	58
10	100
99	86
91	15
20	71
69	47
77	55
56	76
49	71
50	40
57	88
95	79
40	55
70	27
70	99
14	100
58	96
8	8
41	85
45	83
61	1
49	24
63	58
70	1
40	35
24	71
84	87
92	97
56	82

]													
														
														
c:[1 1 1 1 1 1.3 1.3 1.3 1.3 1.3 2 2 2 2 2 ]														
														
														
r:[ 2	2	2	2	2	3	3	3	3	3	5	5	5	5	5
2	2	2	2	2	3	3	3	3	3	5	5	5	5	5
2	2	2	2	2	3	3	3	3	3	5	5	5	5	5
2	2	2	2	2	3	3	3	3	3	5	5	5	5	5
2	2	2	2	2	3	3	3	3	3	5	5	5	5	5
2	2	2	2	2	3	3	3	3	3	5	5	5	5	5
2	2	2	2	2	3	3	3	3	3	5	5	5	5	5
2	2	2	2	2	3	3	3	3	3	5	5	5	5	5
2	2	2	2	2	3	3	3	3	3	5	5	5	5	5
2	2	2	2	2	3	3	3	3	3	5	5	5	5	5
2	2	2	2	2	3	3	3	3	3	5	5	5	5	5
5	5	5	5	5	7	7	7	7	7	10	10	10	10	10
5	5	5	5	5	7	7	7	7	7	10	10	10	10	10
5	5	5	5	5	7	7	7	7	7	10	10	10	10	10
5	5	5	5	5	7	7	7	7	7	10	10	10	10	10
5	5	5	5	5	7	7	7	7	7	10	10	10	10	10
5	5	5	5	5	7	7	7	7	7	10	10	10	10	10
5	5	5	5	5	7	7	7	7	7	10	10	10	10	10
5	5	5	5	5	7	7	7	7	7	10	10	10	10	10
5	5	5	5	5	7	7	7	7	7	10	10	10	10	10
5	5	5	5	5	7	7	7	7	7	10	10	10	10	10
7	7	7	7	7	10	10	10	10	10	12	12	12	12	12
7	7	7	7	7	10	10	10	10	10	12	12	12	12	12
7	7	7	7	7	10	10	10	10	10	12	12	12	12	12
9	9	9	9	9	12	12	12	12	12	15	15	15	15	15
2	2	2	2	2	3	3	3	3	3	5	5	5	5	5
2	2	2	2	2	3	3	3	3	3	5	5	5	5	5
2	2	2	2	2	3	3	3	3	3	5	5	5	5	5
2	2	2	2	2	3	3	3	3	3	5	5	5	5	5
2	2	2	2	2	3	3	3	3	3	5	5	5	5	5
2	2	2	2	2	3	3	3	3	3	5	5	5	5	5
2	2	2	2	2	3	3	3	3	3	5	5	5	5	5
2	2	2	2	2	3	3	3	3	3	5	5	5	5	5
2	2	2	2	2	3	3	3	3	3	5	5	5	5	5
2	2	2	2	2	3	3	3	3	3	5	5	5	5	5
2	2	2	2	2	3	3	3	3	3	5	5	5	5	5
5	5	5	5	5	7	7	7	7	7	10	10	10	10	10
5	5	5	5	5	7	7	7	7	7	10	10	10	10	10
5	5	5	5	5	7	7	7	7	7	10	10	10	10	10
5	5	5	5	5	7	7	7	7	7	10	10	10	10	10
5	5	5	5	5	7	7	7	7	7	10	10	10	10	10
5	5	5	5	5	7	7	7	7	7	10	10	10	10	10
5	5	5	5	5	7	7	7	7	7	10	10	10	10	10
5	5	5	5	5	7	7	7	7	7	10	10	10	10	10
5	5	5	5	5	7	7	7	7	7	10	10	10	10	10
5	5	5	5	5	7	7	7	7	7	10	10	10	10	10
7	7	7	7	7	10	10	10	10	10	12	12	12	12	12
7	7	7	7	7	10	10	10	10	10	12	12	12	12	12
7	7	7	7	7	10	10	10	10	10	12	12	12	12	12
9	9	9	9	9	12	12	12	12	12	15	15	15	15	15
]														
